4916,4066
5696,5631
6986,7779
4665,5626
9950,10017
5543,6258
6689,5807
436,1381
7924,6939
7214,6860
2890,1920
8748,9431
9315,9862
8480,8773
6318,6186
1755,1481
7801,7694
1973,1047
5632,6575
2155,1415
5414,6258
963,189
8414,8816
5326,5837
7421,7019
4097,4984
1930,1508
9843,9091
4126,3888
4997,4253
8308,7896
2148,1925
6706,7097
1146,166
350,59
4855,3868
6034,5213
2890,3445
8047,7303
1279,562
7921,8613
6562,7103
8227,8687
724,859
8918,8673
83,-173
4897,4964
2370,1538
6983,6547
7020,6691

12978
11351
14068
11134
12772
13099
13450
15472
15218
